%%%mzn-stat: initTime=0.031724948
%%%mzn-stat: objective=362
%%%mzn-stat: nodes=18806
%%%mzn-stat: restarts=1
%%%mzn-stat: peakDepth=1947
%%%mzn-stat: solveTime=10.279866002
%%%mzn-stat: variables=3311
%%%mzn-stat: propagators=2791
%%%mzn-stat: failures=14511
%%%mzn-stat: propagations=1822144
%%%mzn-stat: nogoods=14511
%%%mzn-stat: AverageConflictSize=35.10502377506719
%%%mzn-stat: NumUnitNogoodsLearned=190
%%%mzn-stat: AverageLearnedNogoodLength=163.73923230652608
%%%mzn-stat: AverageBacktrackAmount=0
%%%mzn-stat: AverageLbd=34.15684653021845
%%%mzn-stat-end
maxleg = 362;
succ = array1d(1..100,[26, 15, 1, 65, 29, 91, 87, 4, 92, 35, 77, 71, 62, 86, 93, 17, 11, 31, 9, 85, 43, 55, 59, 47, 8, 68, 20, 75, 18, 19, 21, 79, 30, 5, 63, 3, 42, 78, 54, 82, 36, 83, 94, 52, 67, 37, 99, 16, 12, 53, 46, 24, 81, 61, 76, 73, 14, 72, 84, 51, 28, 58, 56, 41, 88, 45, 7, 10, 90, 74, 98, 60, 40, 2, 80, 49, 6, 97, 39, 57, 100, 70, 89, 22, 66, 33, 23, 96, 50, 34, 32, 69, 13, 25, 64, 44, 27, 95, 38, 48]);
% time elapsed: 12.12 s
----------
%%%mzn-stat: initTime=0.031724948
%%%mzn-stat: objective=191
%%%mzn-stat: nodes=19762
%%%mzn-stat: restarts=1
%%%mzn-stat: peakDepth=1947
%%%mzn-stat: solveTime=10.304845529
%%%mzn-stat: variables=3311
%%%mzn-stat: propagators=2791
%%%mzn-stat: failures=14511
%%%mzn-stat: propagations=1827653
%%%mzn-stat: nogoods=14511
%%%mzn-stat: AverageConflictSize=35.10502377506719
%%%mzn-stat: NumUnitNogoodsLearned=190
%%%mzn-stat: AverageLearnedNogoodLength=163.73923230652608
%%%mzn-stat: AverageBacktrackAmount=0
%%%mzn-stat: AverageLbd=34.15684653021845
%%%mzn-stat-end
maxleg = 191;
succ = array1d(1..100,[63, 40, 1, 65, 29, 91, 20, 4, 92, 35, 13, 15, 77, 86, 93, 56, 11, 31, 9, 87, 43, 84, 59, 47, 8, 71, 66, 75, 18, 19, 21, 79, 30, 5, 68, 3, 42, 78, 54, 82, 36, 83, 94, 52, 23, 37, 99, 16, 12, 53, 46, 24, 81, 51, 76, 58, 14, 74, 85, 61, 28, 72, 62, 10, 88, 45, 7, 22, 90, 73, 41, 50, 55, 2, 80, 49, 6, 97, 39, 57, 100, 70, 89, 26, 98, 33, 27, 96, 60, 34, 32, 69, 17, 25, 64, 44, 67, 95, 38, 48]);
% time elapsed: 12.14 s
----------
==========
% time elapsed: 12.14 s
%%%mzn-stat: initTime=0.031724948
%%%mzn-stat: objective=191
%%%mzn-stat: nodes=19762
%%%mzn-stat: restarts=1
%%%mzn-stat: peakDepth=1947
%%%mzn-stat: solveTime=10.304850246
%%%mzn-stat: variables=3311
%%%mzn-stat: propagators=2791
%%%mzn-stat: failures=14511
%%%mzn-stat: propagations=1827653
%%%mzn-stat: nogoods=14511
%%%mzn-stat: AverageConflictSize=35.10502377506719
%%%mzn-stat: NumUnitNogoodsLearned=190
%%%mzn-stat: AverageLearnedNogoodLength=163.73923230652608
%%%mzn-stat: AverageBacktrackAmount=0
%%%mzn-stat: AverageLbd=34.15684653021845
%%%mzn-stat-end
